c CNF file corresponding to a (partial) station packing problem.
p cnf 3826 198
1 2 3 4 5 6 7 8 9 10 11 12 13 14 0
-1 -2 0
-1 -3 0
-1 -4 0
-1 -5 0
-1 -6 0
-1 -7 0
-1 -8 0
-1 -9 0
-1 -10 0
-1 -11 0
-1 -12 0
-1 -13 0
-1 -14 0
-2 -3 0
-2 -4 0
-2 -5 0
-2 -6 0
-2 -7 0
-2 -8 0
-2 -9 0
-2 -10 0
-2 -11 0
-2 -12 0
-2 -13 0
-2 -14 0
-3 -4 0
-3 -5 0
-3 -6 0
-3 -7 0
-3 -8 0
-3 -9 0
-3 -10 0
-3 -11 0
-3 -12 0
-3 -13 0
-3 -14 0
-4 -5 0
-4 -6 0
-4 -7 0
-4 -8 0
-4 -9 0
-4 -10 0
-4 -11 0
-4 -12 0
-4 -13 0
-4 -14 0
-5 -6 0
-5 -7 0
-5 -8 0
-5 -9 0
-5 -10 0
-5 -11 0
-5 -12 0
-5 -13 0
-5 -14 0
-6 -7 0
-6 -8 0
-6 -9 0
-6 -10 0
-6 -11 0
-6 -12 0
-6 -13 0
-6 -14 0
-7 -8 0
-7 -9 0
-7 -10 0
-7 -11 0
-7 -12 0
-7 -13 0
-7 -14 0
-8 -9 0
-8 -10 0
-8 -11 0
-8 -12 0
-8 -13 0
-8 -14 0
-9 -10 0
-9 -11 0
-9 -12 0
-9 -13 0
-9 -14 0
-10 -11 0
-10 -12 0
-10 -13 0
-10 -14 0
-11 -12 0
-11 -13 0
-11 -14 0
-12 -13 0
-12 -14 0
-13 -14 0
3812 3813 3814 3815 3816 3817 3818 3819 3820 3821 3822 3823 3824 3825 3826 0
-3812 -3813 0
-3812 -3814 0
-3812 -3815 0
-3812 -3816 0
-3812 -3817 0
-3812 -3818 0
-3812 -3819 0
-3812 -3820 0
-3812 -3821 0
-3812 -3822 0
-3812 -3823 0
-3812 -3824 0
-3812 -3825 0
-3812 -3826 0
-3813 -3814 0
-3813 -3815 0
-3813 -3816 0
-3813 -3817 0
-3813 -3818 0
-3813 -3819 0
-3813 -3820 0
-3813 -3821 0
-3813 -3822 0
-3813 -3823 0
-3813 -3824 0
-3813 -3825 0
-3813 -3826 0
-3814 -3815 0
-3814 -3816 0
-3814 -3817 0
-3814 -3818 0
-3814 -3819 0
-3814 -3820 0
-3814 -3821 0
-3814 -3822 0
-3814 -3823 0
-3814 -3824 0
-3814 -3825 0
-3814 -3826 0
-3815 -3816 0
-3815 -3817 0
-3815 -3818 0
-3815 -3819 0
-3815 -3820 0
-3815 -3821 0
-3815 -3822 0
-3815 -3823 0
-3815 -3824 0
-3815 -3825 0
-3815 -3826 0
-3816 -3817 0
-3816 -3818 0
-3816 -3819 0
-3816 -3820 0
-3816 -3821 0
-3816 -3822 0
-3816 -3823 0
-3816 -3824 0
-3816 -3825 0
-3816 -3826 0
-3817 -3818 0
-3817 -3819 0
-3817 -3820 0
-3817 -3821 0
-3817 -3822 0
-3817 -3823 0
-3817 -3824 0
-3817 -3825 0
-3817 -3826 0
-3818 -3819 0
-3818 -3820 0
-3818 -3821 0
-3818 -3822 0
-3818 -3823 0
-3818 -3824 0
-3818 -3825 0
-3818 -3826 0
-3819 -3820 0
-3819 -3821 0
-3819 -3822 0
-3819 -3823 0
-3819 -3824 0
-3819 -3825 0
-3819 -3826 0
-3820 -3821 0
-3820 -3822 0
-3820 -3823 0
-3820 -3824 0
-3820 -3825 0
-3820 -3826 0
-3821 -3822 0
-3821 -3823 0
-3821 -3824 0
-3821 -3825 0
-3821 -3826 0
-3822 -3823 0
-3822 -3824 0
-3822 -3825 0
-3822 -3826 0
-3823 -3824 0
-3823 -3825 0
-3823 -3826 0
-3824 -3825 0
-3824 -3826 0
-3825 -3826 0
